/*********************************************
 * OPL 22.1.1.0 Data
 * Author: papemayeldiagnethiam
 * Creation Date: Apr 16, 2024 at 9:47:28 PM
 *********************************************/

edges=
{
<1, 2, 1>,
<1, 3, sqrt(2)>,
};
